; benchmark generated from python API
(set-info :status unknown)
(declare-fun strlen_246_64 () (_ BitVec 64))
(declare-fun args_0_8 () (_ BitVec 8))
(declare-fun strlen_78_64 () (_ BitVec 64))
(declare-fun strncmp_ret_79_32 () (_ BitVec 32))
(declare-fun strlen_272_64 () (_ BitVec 64))
(declare-fun args_1_8 () (_ BitVec 8))
(declare-fun strlen_81_64 () (_ BitVec 64))
(declare-fun strncmp_ret_82_32 () (_ BitVec 32))
(declare-fun strlen_302_64 () (_ BitVec 64))
(declare-fun args_2_8 () (_ BitVec 8))
(declare-fun strlen_84_64 () (_ BitVec 64))
(declare-fun strncmp_ret_303_32 () (_ BitVec 32))
(declare-fun strncmp_ret_85_32 () (_ BitVec 32))
(declare-fun strlen_87_64 () (_ BitVec 64))
(declare-fun args_3_8 () (_ BitVec 8))
(declare-fun strncmp_ret_88_32 () (_ BitVec 32))
(declare-fun strlen_90_64 () (_ BitVec 64))
(declare-fun args_4_8 () (_ BitVec 8))
(declare-fun strncmp_ret_91_32 () (_ BitVec 32))
(declare-fun strlen_93_64 () (_ BitVec 64))
(declare-fun args_5_16 () (_ BitVec 16))
(declare-fun strncmp_ret_94_32 () (_ BitVec 32))
(declare-fun strlen_99_64 () (_ BitVec 64))
(declare-fun args_6_16 () (_ BitVec 16))
(declare-fun strncmp_ret_100_32 () (_ BitVec 32))
(declare-fun strlen_105_64 () (_ BitVec 64))
(declare-fun args_7_16 () (_ BitVec 16))
(declare-fun strncmp_ret_106_32 () (_ BitVec 32))
(declare-fun strlen_111_64 () (_ BitVec 64))
(declare-fun args_8_16 () (_ BitVec 16))
(declare-fun strncmp_ret_112_32 () (_ BitVec 32))
(declare-fun strlen_117_64 () (_ BitVec 64))
(declare-fun args_9_16 () (_ BitVec 16))
(declare-fun strncmp_ret_118_32 () (_ BitVec 32))
(declare-fun strlen_123_64 () (_ BitVec 64))
(declare-fun args_10_32 () (_ BitVec 32))
(declare-fun strncmp_ret_124_32 () (_ BitVec 32))
(declare-fun strlen_129_64 () (_ BitVec 64))
(declare-fun args_11_32 () (_ BitVec 32))
(declare-fun strncmp_ret_130_32 () (_ BitVec 32))
(declare-fun strlen_135_64 () (_ BitVec 64))
(declare-fun args_12_32 () (_ BitVec 32))
(declare-fun strncmp_ret_136_32 () (_ BitVec 32))
(declare-fun strlen_141_64 () (_ BitVec 64))
(declare-fun args_13_32 () (_ BitVec 32))
(declare-fun strncmp_ret_142_32 () (_ BitVec 32))
(declare-fun strlen_147_64 () (_ BitVec 64))
(declare-fun args_14_32 () (_ BitVec 32))
(declare-fun strncmp_ret_148_32 () (_ BitVec 32))
(declare-fun strlen_157_64 () (_ BitVec 64))
(declare-fun args_15_64 () (_ BitVec 64))
(declare-fun strncmp_ret_158_32 () (_ BitVec 32))
(declare-fun args_16_64 () (_ BitVec 64))
(declare-fun num_bytes_164_64 () (_ BitVec 64))
(declare-fun num_bytes_163_64 () (_ BitVec 64))
(declare-fun num_bytes_165_64 () (_ BitVec 64))
(declare-fun strncmp_ret_247_32 () (_ BitVec 32))
(declare-fun strncmp_ret_273_32 () (_ BitVec 32))
(declare-fun strlen_332_64 () (_ BitVec 64))
(declare-fun strncmp_ret_333_32 () (_ BitVec 32))
(assert
 (let ((?x15775 (bvadd (_ bv576460752303357824 64) strlen_246_64)))
 (let (($x69 (= (_ bv0 8) args_0_8)))
 (let ((?x46 (ite $x69 (_ bv576460752303357824 64) (_ bv576460752303357825 64))))
 (= ?x46 ?x15775)))))
(assert
 (let ((?x101 (bvadd (_ bv576460752303357824 64) strlen_78_64)))
 (let (($x69 (= (_ bv0 8) args_0_8)))
 (let ((?x46 (ite $x69 (_ bv576460752303357824 64) (_ bv576460752303357825 64))))
 (= ?x46 ?x101)))))
(assert
 (let (($x104 (bvule (_ bv2 64) strlen_78_64)))
 (let (($x48 (= (_ bv2 64) strlen_78_64)))
 (let (($x175 (or $x48 $x104)))
 (let (($x176 (not $x175)))
 (let (($x57 (= (_ bv45 8) args_0_8)))
 (let (($x174 (not $x57)))
 (or $x174 $x176))))))))
(assert
 (= (_ bv1 32) strncmp_ret_79_32))
(assert
 (let ((?x909 (bvadd (_ bv576460752303357826 64) strlen_272_64)))
 (let (($x121 (= (_ bv0 8) args_1_8)))
 (let ((?x123 (ite $x121 (_ bv576460752303357826 64) (_ bv576460752303357827 64))))
 (= ?x123 ?x909)))))
(assert
 (let ((?x158 (bvadd (_ bv576460752303357826 64) strlen_81_64)))
 (let (($x121 (= (_ bv0 8) args_1_8)))
 (let ((?x123 (ite $x121 (_ bv576460752303357826 64) (_ bv576460752303357827 64))))
 (= ?x123 ?x158)))))
(assert
 (let (($x161 (bvule (_ bv2 64) strlen_81_64)))
 (let (($x136 (= (_ bv2 64) strlen_81_64)))
 (let (($x129 (or $x136 $x161)))
 (let (($x130 (not $x129)))
 (let (($x142 (= (_ bv45 8) args_1_8)))
 (let (($x204 (not $x142)))
 (or $x204 $x130))))))))
(assert
 (= (_ bv1 32) strncmp_ret_82_32))
(assert
 (let ((?x13099 (bvadd (_ bv576460752303357828 64) strlen_302_64)))
 (let (($x191 (= (_ bv0 8) args_2_8)))
 (let ((?x189 (ite $x191 (_ bv576460752303357828 64) (_ bv576460752303357829 64))))
 (= ?x189 ?x13099)))))
(assert
 (let ((?x764 (bvadd (_ bv576460752303357828 64) strlen_84_64)))
 (let (($x191 (= (_ bv0 8) args_2_8)))
 (let ((?x189 (ite $x191 (_ bv576460752303357828 64) (_ bv576460752303357829 64))))
 (= ?x189 ?x764)))))
(assert
 (= (_ bv1 32) strncmp_ret_303_32))
(assert
 (let (($x767 (bvule (_ bv2 64) strlen_84_64)))
 (let (($x746 (= (_ bv2 64) strlen_84_64)))
 (let (($x169 (or $x746 $x767)))
 (let (($x167 (not $x169)))
 (let (($x747 (= (_ bv45 8) args_2_8)))
 (let (($x131 (not $x747)))
 (or $x131 $x167))))))))
(assert
 (= (_ bv1 32) strncmp_ret_85_32))
(assert
 (let ((?x616 (bvadd (_ bv576460752303357830 64) strlen_87_64)))
 (let (($x96 (= (_ bv0 8) args_3_8)))
 (let ((?x157 (ite $x96 (_ bv576460752303357830 64) (_ bv576460752303357831 64))))
 (= ?x157 ?x616)))))
(assert
 (let (($x281 (bvule (_ bv2 64) strlen_87_64)))
 (let (($x165 (= (_ bv2 64) strlen_87_64)))
 (let (($x234 (or $x165 $x281)))
 (let (($x233 (not $x234)))
 (let (($x134 (= (_ bv45 8) args_3_8)))
 (let (($x561 (not $x134)))
 (or $x561 $x233))))))))
(assert
 (= (_ bv1 32) strncmp_ret_88_32))
(assert
 (let ((?x729 (bvadd (_ bv576460752303357832 64) strlen_90_64)))
 (let (($x268 (= (_ bv0 8) args_4_8)))
 (let ((?x342 (ite $x268 (_ bv576460752303357832 64) (_ bv576460752303357833 64))))
 (= ?x342 ?x729)))))
(assert
 (let (($x97 (bvule (_ bv2 64) strlen_90_64)))
 (let (($x609 (= (_ bv2 64) strlen_90_64)))
 (let (($x815 (or $x609 $x97)))
 (let (($x852 (not $x815)))
 (let (($x357 (= (_ bv45 8) args_4_8)))
 (let (($x812 (not $x357)))
 (or $x812 $x852))))))))
(assert
 (= (_ bv1 32) strncmp_ret_91_32))
(assert
 (let ((?x589 (bvadd (_ bv576460752303357834 64) strlen_93_64)))
 (let ((?x273 ((_ extract 7 0) args_5_16)))
 (let (($x258 (= (_ bv0 8) ?x273)))
 (let ((?x446 (ite $x258 (_ bv576460752303357835 64) (_ bv576460752303357836 64))))
 (let ((?x242 ((_ extract 15 8) args_5_16)))
 (let (($x322 (= (_ bv0 8) ?x242)))
 (let ((?x414 (ite $x322 (_ bv576460752303357834 64) ?x446)))
 (= ?x414 ?x589)))))))))
(assert
 (let (($x619 (bvule (_ bv2 64) strlen_93_64)))
 (let (($x221 (= (_ bv2 64) strlen_93_64)))
 (let (($x1182 (or $x221 $x619)))
 (let (($x1181 (not $x1182)))
 (let ((?x242 ((_ extract 15 8) args_5_16)))
 (let (($x571 (= (_ bv45 8) ?x242)))
 (let (($x1183 (not $x571)))
 (let (($x600 (bvule (_ bv1 64) strlen_93_64)))
 (let (($x614 (not $x600)))
 (let ((?x273 ((_ extract 7 0) args_5_16)))
 (let (($x455 (= (_ bv105 8) ?x273)))
 (let (($x366 (or $x455 $x614)))
 (let (($x1192 (not $x366)))
 (or $x1192 $x1183 $x1181)))))))))))))))
(assert
 (= (_ bv1 32) strncmp_ret_94_32))
(assert
 (let ((?x702 (bvadd (_ bv576460752303357837 64) strlen_99_64)))
 (let ((?x779 ((_ extract 7 0) args_6_16)))
 (let (($x1191 (= (_ bv0 8) ?x779)))
 (let ((?x1221 (ite $x1191 (_ bv576460752303357838 64) (_ bv576460752303357839 64))))
 (let ((?x182 ((_ extract 15 8) args_6_16)))
 (let (($x369 (= (_ bv0 8) ?x182)))
 (let ((?x1222 (ite $x369 (_ bv576460752303357837 64) ?x1221)))
 (= ?x1222 ?x702)))))))))
(assert
 (let (($x278 (bvule (_ bv2 64) strlen_99_64)))
 (let (($x1226 (= (_ bv2 64) strlen_99_64)))
 (let (($x1634 (or $x1226 $x278)))
 (let (($x1633 (not $x1634)))
 (let ((?x182 ((_ extract 15 8) args_6_16)))
 (let (($x294 (= (_ bv45 8) ?x182)))
 (let (($x1635 (not $x294)))
 (let (($x708 (bvule (_ bv1 64) strlen_99_64)))
 (let (($x709 (not $x708)))
 (let ((?x779 ((_ extract 7 0) args_6_16)))
 (let (($x1231 (= (_ bv105 8) ?x779)))
 (let (($x1735 (or $x1231 $x709)))
 (let (($x1644 (not $x1735)))
 (or $x1644 $x1635 $x1633)))))))))))))))
(assert
 (= (_ bv1 32) strncmp_ret_100_32))
(assert
 (let ((?x1818 (bvadd (_ bv576460752303357840 64) strlen_105_64)))
 (let ((?x1558 ((_ extract 7 0) args_7_16)))
 (let (($x1643 (= (_ bv0 8) ?x1558)))
 (let ((?x1652 (ite $x1643 (_ bv576460752303357841 64) (_ bv576460752303357842 64))))
 (let ((?x1387 ((_ extract 15 8) args_7_16)))
 (let (($x1480 (= (_ bv0 8) ?x1387)))
 (let ((?x1653 (ite $x1480 (_ bv576460752303357840 64) ?x1652)))
 (= ?x1653 ?x1818)))))))))
(assert
 (let (($x1821 (bvule (_ bv2 64) strlen_105_64)))
 (let (($x1665 (= (_ bv2 64) strlen_105_64)))
 (let (($x2359 (or $x1665 $x1821)))
 (let (($x2358 (not $x2359)))
 (let ((?x1387 ((_ extract 15 8) args_7_16)))
 (let (($x1373 (= (_ bv45 8) ?x1387)))
 (let (($x2360 (not $x1373)))
 (let (($x1826 (bvule (_ bv1 64) strlen_105_64)))
 (let (($x1827 (not $x1826)))
 (let ((?x1558 ((_ extract 7 0) args_7_16)))
 (let (($x1670 (= (_ bv105 8) ?x1558)))
 (let (($x2027 (or $x1670 $x1827)))
 (let (($x2371 (not $x2027)))
 (or $x2371 $x2360 $x2358)))))))))))))))
(assert
 (= (_ bv1 32) strncmp_ret_106_32))
(assert
 (let ((?x2284 (bvadd (_ bv576460752303357843 64) strlen_111_64)))
 (let ((?x1852 ((_ extract 7 0) args_8_16)))
 (let (($x2370 (= (_ bv0 8) ?x1852)))
 (let ((?x2404 (ite $x2370 (_ bv576460752303357844 64) (_ bv576460752303357845 64))))
 (let ((?x2032 ((_ extract 15 8) args_8_16)))
 (let (($x1997 (= (_ bv0 8) ?x2032)))
 (let ((?x2405 (ite $x1997 (_ bv576460752303357843 64) ?x2404)))
 (= ?x2405 ?x2284)))))))))
(assert
 (let (($x2287 (bvule (_ bv2 64) strlen_111_64)))
 (let (($x2409 (= (_ bv2 64) strlen_111_64)))
 (let (($x3118 (or $x2409 $x2287)))
 (let (($x3117 (not $x3118)))
 (let ((?x2032 ((_ extract 15 8) args_8_16)))
 (let (($x1851 (= (_ bv45 8) ?x2032)))
 (let (($x3119 (not $x1851)))
 (let (($x2292 (bvule (_ bv1 64) strlen_111_64)))
 (let (($x2293 (not $x2292)))
 (let ((?x1852 ((_ extract 7 0) args_8_16)))
 (let (($x2414 (= (_ bv105 8) ?x1852)))
 (let (($x2522 (or $x2414 $x2293)))
 (let (($x3130 (not $x2522)))
 (or $x3130 $x3119 $x3117)))))))))))))))
(assert
 (= (_ bv1 32) strncmp_ret_112_32))
(assert
 (let ((?x3168 (bvadd (_ bv576460752303357846 64) strlen_117_64)))
 (let ((?x2852 ((_ extract 7 0) args_9_16)))
 (let (($x3129 (= (_ bv0 8) ?x2852)))
 (let ((?x3112 (ite $x3129 (_ bv576460752303357847 64) (_ bv576460752303357848 64))))
 (let ((?x2821 ((_ extract 15 8) args_9_16)))
 (let (($x3121 (= (_ bv0 8) ?x2821)))
 (let ((?x3111 (ite $x3121 (_ bv576460752303357846 64) ?x3112)))
 (= ?x3111 ?x3168)))))))))
(assert
 (let (($x3171 (bvule (_ bv2 64) strlen_117_64)))
 (let (($x3124 (= (_ bv2 64) strlen_117_64)))
 (let (($x4010 (or $x3124 $x3171)))
 (let (($x4011 (not $x4010)))
 (let ((?x2821 ((_ extract 15 8) args_9_16)))
 (let (($x2847 (= (_ bv45 8) ?x2821)))
 (let (($x4009 (not $x2847)))
 (let (($x3176 (bvule (_ bv1 64) strlen_117_64)))
 (let (($x3177 (not $x3176)))
 (let ((?x2852 ((_ extract 7 0) args_9_16)))
 (let (($x2583 (= (_ bv105 8) ?x2852)))
 (let (($x4007 (or $x2583 $x3177)))
 (let (($x4008 (not $x4007)))
 (or $x4008 $x4009 $x4011)))))))))))))))
(assert
 (= (_ bv1 32) strncmp_ret_118_32))
(assert
 (let ((?x3990 (bvadd (_ bv576460752303357849 64) strlen_123_64)))
 (let ((?x3092 ((_ extract 7 0) args_10_32)))
 (let (($x3393 (= (_ bv0 8) ?x3092)))
 (let ((?x3961 (ite $x3393 (_ bv576460752303357852 64) (_ bv576460752303357853 64))))
 (let ((?x3366 ((_ extract 15 8) args_10_32)))
 (let (($x3331 (= (_ bv0 8) ?x3366)))
 (let ((?x3960 (ite $x3331 (_ bv576460752303357851 64) ?x3961)))
 (let ((?x3358 ((_ extract 23 16) args_10_32)))
 (let (($x3984 (= (_ bv0 8) ?x3358)))
 (let ((?x3959 (ite $x3984 (_ bv576460752303357850 64) ?x3960)))
 (let ((?x3316 ((_ extract 31 24) args_10_32)))
 (let (($x3318 (= (_ bv0 8) ?x3316)))
 (let ((?x3958 (ite $x3318 (_ bv576460752303357849 64) ?x3959)))
 (= ?x3958 ?x3990)))))))))))))))
(assert
 (let ((?x3316 ((_ extract 31 24) args_10_32)))
 (let (($x3302 (= (_ bv45 8) ?x3316)))
 (let (($x4328 (not $x3302)))
 (let (($x3605 (= (_ bv2 64) strlen_123_64)))
 (let (($x4280 (not $x3605)))
 (let (($x3996 (bvule (_ bv1 64) strlen_123_64)))
 (let (($x3997 (not $x3996)))
 (let ((?x3358 ((_ extract 23 16) args_10_32)))
 (let (($x3963 (= (_ bv105 8) ?x3358)))
 (let (($x4474 (or $x3963 $x3997)))
 (let (($x4477 (not $x4474)))
 (or $x4477 $x4280 $x4328)))))))))))))
(assert
 (= (_ bv1 32) strncmp_ret_124_32))
(assert
 (let ((?x4754 (bvadd (_ bv576460752303357854 64) strlen_129_64)))
 (let ((?x4132 ((_ extract 7 0) args_11_32)))
 (let (($x3889 (= (_ bv0 8) ?x4132)))
 (let ((?x1118 (ite $x3889 (_ bv576460752303357857 64) (_ bv576460752303357858 64))))
 (let ((?x4320 ((_ extract 15 8) args_11_32)))
 (let (($x4329 (= (_ bv0 8) ?x4320)))
 (let ((?x2993 (ite $x4329 (_ bv576460752303357856 64) ?x1118)))
 (let ((?x3930 ((_ extract 23 16) args_11_32)))
 (let (($x4473 (= (_ bv0 8) ?x3930)))
 (let ((?x2992 (ite $x4473 (_ bv576460752303357855 64) ?x2993)))
 (let ((?x3738 ((_ extract 31 24) args_11_32)))
 (let (($x3872 (= (_ bv0 8) ?x3738)))
 (let ((?x3164 (ite $x3872 (_ bv576460752303357854 64) ?x2992)))
 (= ?x3164 ?x4754)))))))))))))))
(assert
 (let ((?x3738 ((_ extract 31 24) args_11_32)))
 (let (($x3860 (= (_ bv45 8) ?x3738)))
 (let (($x5387 (not $x3860)))
 (let (($x901 (= (_ bv2 64) strlen_129_64)))
 (let (($x5266 (not $x901)))
 (let (($x4760 (bvule (_ bv1 64) strlen_129_64)))
 (let (($x4761 (not $x4760)))
 (let ((?x3930 ((_ extract 23 16) args_11_32)))
 (let (($x1246 (= (_ bv105 8) ?x3930)))
 (let (($x5264 (or $x1246 $x4761)))
 (let (($x5265 (not $x5264)))
 (or $x5265 $x5266 $x5387)))))))))))))
(assert
 (= (_ bv1 32) strncmp_ret_130_32))
(assert
 (let ((?x5432 (bvadd (_ bv576460752303357859 64) strlen_135_64)))
 (let ((?x4643 ((_ extract 7 0) args_12_32)))
 (let (($x4664 (= (_ bv0 8) ?x4643)))
 (let ((?x4502 (ite $x4664 (_ bv576460752303357862 64) (_ bv576460752303357863 64))))
 (let ((?x4615 ((_ extract 15 8) args_12_32)))
 (let (($x5052 (= (_ bv0 8) ?x4615)))
 (let ((?x5315 (ite $x5052 (_ bv576460752303357861 64) ?x4502)))
 (let ((?x4639 ((_ extract 23 16) args_12_32)))
 (let (($x5295 (= (_ bv0 8) ?x4639)))
 (let ((?x5054 (ite $x5295 (_ bv576460752303357860 64) ?x5315)))
 (let ((?x4500 ((_ extract 31 24) args_12_32)))
 (let (($x4659 (= (_ bv0 8) ?x4500)))
 (let ((?x5316 (ite $x4659 (_ bv576460752303357859 64) ?x5054)))
 (= ?x5316 ?x5432)))))))))))))))
(assert
 (let ((?x4500 ((_ extract 31 24) args_12_32)))
 (let (($x4877 (= (_ bv45 8) ?x4500)))
 (let (($x5808 (not $x4877)))
 (let (($x5320 (= (_ bv2 64) strlen_135_64)))
 (let (($x5287 (not $x5320)))
 (let ((?x4639 ((_ extract 23 16) args_12_32)))
 (let (($x5100 (= (_ bv105 8) ?x4639)))
 (let (($x5334 (bvule (_ bv1 64) strlen_135_64)))
 (let (($x5333 (not $x5334)))
 (let (($x5977 (or $x5333 $x5100)))
 (let (($x6014 (not $x5977)))
 (or $x6014 $x5287 $x5808)))))))))))))
(assert
 (= (_ bv1 32) strncmp_ret_136_32))
(assert
 (let ((?x6051 (bvadd (_ bv576460752303357864 64) strlen_141_64)))
 (let ((?x5193 ((_ extract 7 0) args_13_32)))
 (let (($x5810 (= (_ bv0 8) ?x5193)))
 (let ((?x5941 (ite $x5810 (_ bv576460752303357867 64) (_ bv576460752303357868 64))))
 (let ((?x5752 ((_ extract 15 8) args_13_32)))
 (let (($x5809 (= (_ bv0 8) ?x5752)))
 (let ((?x5940 (ite $x5809 (_ bv576460752303357866 64) ?x5941)))
 (let ((?x5879 ((_ extract 23 16) args_13_32)))
 (let (($x5976 (= (_ bv0 8) ?x5879)))
 (let ((?x5939 (ite $x5976 (_ bv576460752303357865 64) ?x5940)))
 (let ((?x5380 ((_ extract 31 24) args_13_32)))
 (let (($x5374 (= (_ bv0 8) ?x5380)))
 (let ((?x5938 (ite $x5374 (_ bv576460752303357864 64) ?x5939)))
 (= ?x5938 ?x6051)))))))))))))))
(assert
 (let ((?x5380 ((_ extract 31 24) args_13_32)))
 (let (($x5591 (= (_ bv45 8) ?x5380)))
 (let (($x6417 (not $x5591)))
 (let (($x5958 (= (_ bv2 64) strlen_141_64)))
 (let (($x6252 (not $x5958)))
 (let (($x6057 (bvule (_ bv1 64) strlen_141_64)))
 (let (($x6058 (not $x6057)))
 (let ((?x5879 ((_ extract 23 16) args_13_32)))
 (let (($x5961 (= (_ bv105 8) ?x5879)))
 (let (($x6995 (or $x5961 $x6058)))
 (let (($x6998 (not $x6995)))
 (or $x6998 $x6252 $x6417)))))))))))))
(assert
 (= (_ bv1 32) strncmp_ret_142_32))
(assert
 (let ((?x6795 (bvadd (_ bv576460752303357869 64) strlen_147_64)))
 (let ((?x6356 ((_ extract 7 0) args_14_32)))
 (let (($x6416 (= (_ bv0 8) ?x6356)))
 (let ((?x6969 (ite $x6416 (_ bv576460752303357872 64) (_ bv576460752303357873 64))))
 (let ((?x6433 ((_ extract 15 8) args_14_32)))
 (let (($x6523 (= (_ bv0 8) ?x6433)))
 (let ((?x6966 (ite $x6523 (_ bv576460752303357871 64) ?x6969)))
 (let ((?x5337 ((_ extract 23 16) args_14_32)))
 (let (($x6994 (= (_ bv0 8) ?x5337)))
 (let ((?x6965 (ite $x6994 (_ bv576460752303357870 64) ?x6966)))
 (let ((?x6270 ((_ extract 31 24) args_14_32)))
 (let (($x5985 (= (_ bv0 8) ?x6270)))
 (let ((?x6964 (ite $x5985 (_ bv576460752303357869 64) ?x6965)))
 (= ?x6964 ?x6795)))))))))))))))
(assert
 (let ((?x6270 ((_ extract 31 24) args_14_32)))
 (let (($x5368 (= (_ bv45 8) ?x6270)))
 (let (($x8173 (not $x5368)))
 (let (($x6977 (= (_ bv2 64) strlen_147_64)))
 (let (($x8166 (not $x6977)))
 (let (($x6801 (bvule (_ bv1 64) strlen_147_64)))
 (let (($x6802 (not $x6801)))
 (let ((?x5337 ((_ extract 23 16) args_14_32)))
 (let (($x6980 (= (_ bv105 8) ?x5337)))
 (let (($x1494 (or $x6980 $x6802)))
 (let (($x1513 (not $x1494)))
 (or $x1513 $x8166 $x8173)))))))))))))
(assert
 (= (_ bv1 32) strncmp_ret_148_32))
(assert
 (= (_ bv2 64) strlen_157_64))
(assert
 (let ((?x6919 ((_ extract 47 40) args_15_64)))
 (= (_ bv0 8) ?x6919)))
(assert
 (let ((?x7096 ((_ extract 63 56) args_15_64)))
 (= (_ bv45 8) ?x7096)))
(assert
 (let ((?x7152 ((_ extract 55 48) args_15_64)))
 (= (_ bv105 8) ?x7152)))
(assert
 (= (_ bv0 32) strncmp_ret_158_32))
(assert
 (let ((?x2045 ((_ extract 55 54) args_16_64)))
 (let (($x8809 (= (_ bv0 2) ?x2045)))
 (let (($x398 (not $x8809)))
 (let ((?x2170 ((_ extract 55 48) args_16_64)))
 (let (($x2031 (bvule (_ bv48 8) ?x2170)))
 (let (($x1511 (not $x2031)))
 (let ((?x1916 ((_ extract 53 48) args_16_64)))
 (let (($x2180 (bvule ?x1916 (_ bv57 6))))
 (let (($x8155 (not $x2180)))
 (let (($x6805 (or $x8155 $x1511 $x398)))
 (let (($x1622 (= (_ bv1 64) num_bytes_164_64)))
 (let (($x6799 (not $x1622)))
 (let ((?x2156 ((_ extract 47 46) args_16_64)))
 (let (($x6810 (= (_ bv0 2) ?x2156)))
 (let (($x1361 (not $x6810)))
 (let ((?x2108 ((_ extract 47 40) args_16_64)))
 (let (($x9243 (bvule (_ bv48 8) ?x2108)))
 (let (($x7224 (not $x9243)))
 (let ((?x2174 ((_ extract 45 40) args_16_64)))
 (let (($x2057 (bvule ?x2174 (_ bv57 6))))
 (let (($x1589 (not $x2057)))
 (let (($x586 (or $x1589 $x7224 $x1361)))
 (let (($x718 (not $x586)))
 (let (($x7140 (or $x718 $x6799 $x6805)))
 (let (($x1156 (not $x7140)))
 (let (($x800 (not $x6805)))
 (let (($x1617 (= (_ bv0 64) num_bytes_164_64)))
 (let (($x953 (not $x1617)))
 (let (($x578 (or $x953 $x800)))
 (let (($x633 (not $x578)))
 (let (($x1497 (or $x6805 $x586)))
 (let (($x1621 (= (_ bv2 64) num_bytes_164_64)))
 (let (($x1149 (not $x1621)))
 (let ((?x9278 ((_ extract 39 38) args_16_64)))
 (let (($x1016 (= (_ bv0 2) ?x9278)))
 (let (($x7230 (not $x1016)))
 (let ((?x2102 ((_ extract 39 32) args_16_64)))
 (let (($x9282 (bvule (_ bv48 8) ?x2102)))
 (let (($x1325 (not $x9282)))
 (let ((?x9258 ((_ extract 37 32) args_16_64)))
 (let (($x9131 (bvule ?x9258 (_ bv57 6))))
 (let (($x957 (not $x9131)))
 (let (($x963 (or $x957 $x1325 $x7230)))
 (let (($x579 (not $x963)))
 (let (($x618 (or $x579 $x1149 $x1497)))
 (let (($x222 (not $x618)))
 (let (($x1690 (or $x963 $x1497)))
 (let (($x1447 (= (_ bv3 64) num_bytes_164_64)))
 (let (($x7157 (not $x1447)))
 (let ((?x9312 ((_ extract 31 30) args_16_64)))
 (let (($x6806 (= (_ bv0 2) ?x9312)))
 (let (($x1220 (not $x6806)))
 (let ((?x2015 ((_ extract 31 24) args_16_64)))
 (let (($x9000 (bvule (_ bv48 8) ?x2015)))
 (let (($x6788 (not $x9000)))
 (let ((?x1964 ((_ extract 29 24) args_16_64)))
 (let (($x8749 (bvule ?x1964 (_ bv57 6))))
 (let (($x8116 (not $x8749)))
 (let (($x1486 (or $x8116 $x6788 $x1220)))
 (let (($x6794 (not $x1486)))
 (let (($x964 (or $x6794 $x7157 $x1690)))
 (let (($x6792 (not $x964)))
 (let (($x8399 (or $x1486 $x1690)))
 (let (($x1791 (= (_ bv4 64) num_bytes_164_64)))
 (let (($x6807 (not $x1791)))
 (let ((?x9108 ((_ extract 23 22) args_16_64)))
 (let (($x1762 (= (_ bv0 2) ?x9108)))
 (let (($x1277 (not $x1762)))
 (let ((?x2105 ((_ extract 23 16) args_16_64)))
 (let (($x9118 (bvule (_ bv48 8) ?x2105)))
 (let (($x1520 (not $x9118)))
 (let ((?x9173 ((_ extract 21 16) args_16_64)))
 (let (($x8954 (bvule ?x9173 (_ bv57 6))))
 (let (($x1569 (not $x8954)))
 (let (($x1140 (or $x1569 $x1520 $x1277)))
 (let (($x1193 (not $x1140)))
 (let (($x7344 (or $x1193 $x6807 $x8399)))
 (let (($x1331 (not $x7344)))
 (let (($x1760 (or $x1140 $x8399)))
 (let (($x1612 (= (_ bv5 64) num_bytes_164_64)))
 (let (($x1422 (not $x1612)))
 (let ((?x9228 ((_ extract 15 14) args_16_64)))
 (let (($x6809 (= (_ bv0 2) ?x9228)))
 (let (($x954 (not $x6809)))
 (let ((?x1452 ((_ extract 15 8) args_16_64)))
 (let (($x9123 (bvule (_ bv48 8) ?x1452)))
 (let (($x8578 (not $x9123)))
 (let ((?x9124 ((_ extract 13 8) args_16_64)))
 (let (($x1800 (bvule ?x9124 (_ bv57 6))))
 (let (($x8178 (not $x1800)))
 (let (($x677 (or $x8178 $x8578 $x954)))
 (let (($x1354 (not $x677)))
 (let (($x1097 (or $x1354 $x1422 $x1760)))
 (let (($x245 (not $x1097)))
 (let (($x1590 (or $x677 $x1760)))
 (let (($x1460 (= (_ bv6 64) num_bytes_164_64)))
 (let (($x8487 (not $x1460)))
 (let ((?x9001 ((_ extract 7 6) args_16_64)))
 (let (($x944 (= (_ bv0 2) ?x9001)))
 (let (($x1417 (not $x944)))
 (let ((?x1645 ((_ extract 7 0) args_16_64)))
 (let (($x8973 (bvule (_ bv48 8) ?x1645)))
 (let (($x8267 (not $x8973)))
 (let ((?x8775 ((_ extract 5 0) args_16_64)))
 (let (($x8755 (bvule ?x8775 (_ bv57 6))))
 (let (($x1705 (not $x8755)))
 (let (($x652 (or $x1705 $x8267 $x1417)))
 (let (($x8386 (not $x652)))
 (let (($x918 (or $x8386 $x8487 $x1590)))
 (let (($x1510 (not $x918)))
 (let (($x8089 (or $x652 $x1590)))
 (let (($x2209 (= (_ bv7 64) num_bytes_164_64)))
 (let (($x6798 (not $x2209)))
 (let (($x8453 (or $x6798 $x8089)))
 (let (($x1059 (not $x8453)))
 (or $x1059 $x1510 $x245 $x1331 $x6792 $x222 $x633 $x1156)))))))))))))))))))))))))))))))))))))))))))))))))))))))))))))))))))))))))))))))))))))))))))))))))))))))))))))))))))))
(assert
 (let ((?x2045 ((_ extract 55 54) args_16_64)))
 (let (($x8809 (= (_ bv0 2) ?x2045)))
 (let (($x398 (not $x8809)))
 (let ((?x2170 ((_ extract 55 48) args_16_64)))
 (let (($x2031 (bvule (_ bv48 8) ?x2170)))
 (let (($x1511 (not $x2031)))
 (let ((?x1916 ((_ extract 53 48) args_16_64)))
 (let (($x2180 (bvule ?x1916 (_ bv57 6))))
 (let (($x8155 (not $x2180)))
 (let (($x6805 (or $x8155 $x1511 $x398)))
 (let (($x2044 (= (_ bv1 64) num_bytes_163_64)))
 (let (($x445 (not $x2044)))
 (let ((?x2156 ((_ extract 47 46) args_16_64)))
 (let (($x6810 (= (_ bv0 2) ?x2156)))
 (let (($x1361 (not $x6810)))
 (let ((?x2108 ((_ extract 47 40) args_16_64)))
 (let (($x9243 (bvule (_ bv48 8) ?x2108)))
 (let (($x7224 (not $x9243)))
 (let ((?x2174 ((_ extract 45 40) args_16_64)))
 (let (($x2057 (bvule ?x2174 (_ bv57 6))))
 (let (($x1589 (not $x2057)))
 (let (($x586 (or $x1589 $x7224 $x1361)))
 (let (($x718 (not $x586)))
 (let (($x664 (or $x718 $x445 $x6805)))
 (let (($x7183 (not $x664)))
 (let (($x800 (not $x6805)))
 (let (($x2323 (= (_ bv0 64) num_bytes_163_64)))
 (let (($x960 (not $x2323)))
 (let (($x698 (or $x960 $x800)))
 (let (($x778 (not $x698)))
 (let (($x1497 (or $x6805 $x586)))
 (let (($x1934 (= (_ bv2 64) num_bytes_163_64)))
 (let (($x7309 (not $x1934)))
 (let ((?x9278 ((_ extract 39 38) args_16_64)))
 (let (($x1016 (= (_ bv0 2) ?x9278)))
 (let (($x7230 (not $x1016)))
 (let ((?x2102 ((_ extract 39 32) args_16_64)))
 (let (($x9282 (bvule (_ bv48 8) ?x2102)))
 (let (($x1325 (not $x9282)))
 (let ((?x9258 ((_ extract 37 32) args_16_64)))
 (let (($x9131 (bvule ?x9258 (_ bv57 6))))
 (let (($x957 (not $x9131)))
 (let (($x963 (or $x957 $x1325 $x7230)))
 (let (($x579 (not $x963)))
 (let (($x7313 (or $x579 $x7309 $x1497)))
 (let (($x7159 (not $x7313)))
 (let (($x1690 (or $x963 $x1497)))
 (let (($x2171 (= (_ bv3 64) num_bytes_163_64)))
 (let (($x7008 (not $x2171)))
 (let ((?x9312 ((_ extract 31 30) args_16_64)))
 (let (($x6806 (= (_ bv0 2) ?x9312)))
 (let (($x1220 (not $x6806)))
 (let ((?x2015 ((_ extract 31 24) args_16_64)))
 (let (($x9000 (bvule (_ bv48 8) ?x2015)))
 (let (($x6788 (not $x9000)))
 (let ((?x1964 ((_ extract 29 24) args_16_64)))
 (let (($x8749 (bvule ?x1964 (_ bv57 6))))
 (let (($x8116 (not $x8749)))
 (let (($x1486 (or $x8116 $x6788 $x1220)))
 (let (($x6794 (not $x1486)))
 (let (($x6912 (or $x6794 $x7008 $x1690)))
 (let (($x143 (not $x6912)))
 (let (($x8399 (or $x1486 $x1690)))
 (let (($x6047 (= (_ bv4 64) num_bytes_163_64)))
 (let (($x6757 (not $x6047)))
 (let ((?x9108 ((_ extract 23 22) args_16_64)))
 (let (($x1762 (= (_ bv0 2) ?x9108)))
 (let (($x1277 (not $x1762)))
 (let ((?x2105 ((_ extract 23 16) args_16_64)))
 (let (($x9118 (bvule (_ bv48 8) ?x2105)))
 (let (($x1520 (not $x9118)))
 (let ((?x9173 ((_ extract 21 16) args_16_64)))
 (let (($x8954 (bvule ?x9173 (_ bv57 6))))
 (let (($x1569 (not $x8954)))
 (let (($x1140 (or $x1569 $x1520 $x1277)))
 (let (($x1193 (not $x1140)))
 (let (($x6901 (or $x1193 $x6757 $x8399)))
 (let (($x7027 (not $x6901)))
 (let (($x1760 (or $x1140 $x8399)))
 (let (($x1865 (= (_ bv5 64) num_bytes_163_64)))
 (let (($x8389 (not $x1865)))
 (let ((?x9228 ((_ extract 15 14) args_16_64)))
 (let (($x6809 (= (_ bv0 2) ?x9228)))
 (let (($x954 (not $x6809)))
 (let ((?x1452 ((_ extract 15 8) args_16_64)))
 (let (($x9123 (bvule (_ bv48 8) ?x1452)))
 (let (($x8578 (not $x9123)))
 (let ((?x9124 ((_ extract 13 8) args_16_64)))
 (let (($x1800 (bvule ?x9124 (_ bv57 6))))
 (let (($x8178 (not $x1800)))
 (let (($x677 (or $x8178 $x8578 $x954)))
 (let (($x1354 (not $x677)))
 (let (($x179 (or $x1354 $x8389 $x1760)))
 (let (($x583 (not $x179)))
 (let (($x1590 (or $x677 $x1760)))
 (let (($x1904 (= (_ bv6 64) num_bytes_163_64)))
 (let (($x14341 (not $x1904)))
 (let ((?x9001 ((_ extract 7 6) args_16_64)))
 (let (($x944 (= (_ bv0 2) ?x9001)))
 (let (($x1417 (not $x944)))
 (let ((?x1645 ((_ extract 7 0) args_16_64)))
 (let (($x8973 (bvule (_ bv48 8) ?x1645)))
 (let (($x8267 (not $x8973)))
 (let ((?x8775 ((_ extract 5 0) args_16_64)))
 (let (($x8755 (bvule ?x8775 (_ bv57 6))))
 (let (($x1705 (not $x8755)))
 (let (($x652 (or $x1705 $x8267 $x1417)))
 (let (($x8386 (not $x652)))
 (let (($x720 (or $x8386 $x14341 $x1590)))
 (let (($x14630 (not $x720)))
 (let (($x8089 (or $x652 $x1590)))
 (let (($x8689 (= (_ bv7 64) num_bytes_163_64)))
 (let (($x7092 (not $x8689)))
 (let (($x15653 (or $x7092 $x8089)))
 (let (($x14353 (not $x15653)))
 (or $x14353 $x14630 $x583 $x7027 $x143 $x7159 $x778 $x7183)))))))))))))))))))))))))))))))))))))))))))))))))))))))))))))))))))))))))))))))))))))))))))))))))))))))))))))))))))))
(assert
 (let ((?x8996 ((_ extract 63 62) args_16_64)))
 (let (($x7475 (= (_ bv0 2) ?x8996)))
 (let (($x7449 (not $x7475)))
 (let ((?x9051 ((_ extract 63 56) args_16_64)))
 (let (($x9284 (bvule (_ bv48 8) ?x9051)))
 (let (($x1562 (not $x9284)))
 (let ((?x9020 ((_ extract 61 56) args_16_64)))
 (let (($x9021 (bvule ?x9020 (_ bv57 6))))
 (let (($x1116 (not $x9021)))
 (let (($x7327 (or $x1116 $x1562 $x7449)))
 (let (($x1439 (= (_ bv1 64) num_bytes_165_64)))
 (let (($x7634 (not $x1439)))
 (let ((?x2045 ((_ extract 55 54) args_16_64)))
 (let (($x8809 (= (_ bv0 2) ?x2045)))
 (let (($x398 (not $x8809)))
 (let ((?x2170 ((_ extract 55 48) args_16_64)))
 (let (($x2031 (bvule (_ bv48 8) ?x2170)))
 (let (($x1511 (not $x2031)))
 (let ((?x1916 ((_ extract 53 48) args_16_64)))
 (let (($x2180 (bvule ?x1916 (_ bv57 6))))
 (let (($x8155 (not $x2180)))
 (let (($x6805 (or $x8155 $x1511 $x398)))
 (let (($x800 (not $x6805)))
 (let (($x7009 (or $x800 $x7634 $x7327)))
 (let (($x733 (not $x7009)))
 (let (($x6907 (not $x7327)))
 (let (($x2019 (= (_ bv0 64) num_bytes_165_64)))
 (let (($x6958 (not $x2019)))
 (let (($x7121 (or $x6958 $x6907)))
 (let (($x7069 (not $x7121)))
 (let (($x2212 (= (_ bv2 64) num_bytes_165_64)))
 (let (($x6768 (not $x2212)))
 (let ((?x2156 ((_ extract 47 46) args_16_64)))
 (let (($x6810 (= (_ bv0 2) ?x2156)))
 (let (($x1361 (not $x6810)))
 (let ((?x2108 ((_ extract 47 40) args_16_64)))
 (let (($x9243 (bvule (_ bv48 8) ?x2108)))
 (let (($x7224 (not $x9243)))
 (let ((?x2174 ((_ extract 45 40) args_16_64)))
 (let (($x2057 (bvule ?x2174 (_ bv57 6))))
 (let (($x1589 (not $x2057)))
 (let (($x586 (or $x1589 $x7224 $x1361)))
 (let (($x718 (not $x586)))
 (let (($x213 (or $x718 $x6768 $x1116 $x7449 $x1562 $x6805)))
 (let (($x959 (not $x213)))
 (let (($x1497 (or $x6805 $x586)))
 (let (($x1802 (= (_ bv3 64) num_bytes_165_64)))
 (let (($x7118 (not $x1802)))
 (let ((?x9278 ((_ extract 39 38) args_16_64)))
 (let (($x1016 (= (_ bv0 2) ?x9278)))
 (let (($x7230 (not $x1016)))
 (let ((?x2102 ((_ extract 39 32) args_16_64)))
 (let (($x9282 (bvule (_ bv48 8) ?x2102)))
 (let (($x1325 (not $x9282)))
 (let ((?x9258 ((_ extract 37 32) args_16_64)))
 (let (($x9131 (bvule ?x9258 (_ bv57 6))))
 (let (($x957 (not $x9131)))
 (let (($x963 (or $x957 $x1325 $x7230)))
 (let (($x579 (not $x963)))
 (let (($x7249 (or $x579 $x7118 $x7327 $x1497)))
 (let (($x6744 (not $x7249)))
 (let (($x1690 (or $x963 $x1497)))
 (let (($x1976 (= (_ bv4 64) num_bytes_165_64)))
 (let (($x7350 (not $x1976)))
 (let ((?x9312 ((_ extract 31 30) args_16_64)))
 (let (($x6806 (= (_ bv0 2) ?x9312)))
 (let (($x1220 (not $x6806)))
 (let ((?x2015 ((_ extract 31 24) args_16_64)))
 (let (($x9000 (bvule (_ bv48 8) ?x2015)))
 (let (($x6788 (not $x9000)))
 (let ((?x1964 ((_ extract 29 24) args_16_64)))
 (let (($x8749 (bvule ?x1964 (_ bv57 6))))
 (let (($x8116 (not $x8749)))
 (let (($x1486 (or $x8116 $x6788 $x1220)))
 (let (($x6794 (not $x1486)))
 (let (($x7356 (or $x6794 $x7350 $x7327 $x1690)))
 (let (($x962 (not $x7356)))
 (let (($x8399 (or $x1486 $x1690)))
 (let (($x2161 (= (_ bv5 64) num_bytes_165_64)))
 (let (($x7123 (not $x2161)))
 (let ((?x9108 ((_ extract 23 22) args_16_64)))
 (let (($x1762 (= (_ bv0 2) ?x9108)))
 (let (($x1277 (not $x1762)))
 (let ((?x2105 ((_ extract 23 16) args_16_64)))
 (let (($x9118 (bvule (_ bv48 8) ?x2105)))
 (let (($x1520 (not $x9118)))
 (let ((?x9173 ((_ extract 21 16) args_16_64)))
 (let (($x8954 (bvule ?x9173 (_ bv57 6))))
 (let (($x1569 (not $x8954)))
 (let (($x1140 (or $x1569 $x1520 $x1277)))
 (let (($x1193 (not $x1140)))
 (let (($x7374 (or $x1193 $x7123 $x7327 $x8399)))
 (let (($x7362 (not $x7374)))
 (let (($x1760 (or $x1140 $x8399)))
 (let (($x1977 (= (_ bv6 64) num_bytes_165_64)))
 (let (($x7392 (not $x1977)))
 (let ((?x9228 ((_ extract 15 14) args_16_64)))
 (let (($x6809 (= (_ bv0 2) ?x9228)))
 (let (($x954 (not $x6809)))
 (let ((?x1452 ((_ extract 15 8) args_16_64)))
 (let (($x9123 (bvule (_ bv48 8) ?x1452)))
 (let (($x8578 (not $x9123)))
 (let ((?x9124 ((_ extract 13 8) args_16_64)))
 (let (($x1800 (bvule ?x9124 (_ bv57 6))))
 (let (($x8178 (not $x1800)))
 (let (($x677 (or $x8178 $x8578 $x954)))
 (let (($x1354 (not $x677)))
 (let (($x7380 (or $x1354 $x7392 $x7327 $x1760)))
 (let (($x7368 (not $x7380)))
 (let (($x1590 (or $x677 $x1760)))
 (let (($x2194 (= (_ bv7 64) num_bytes_165_64)))
 (let (($x7436 (not $x2194)))
 (let ((?x9001 ((_ extract 7 6) args_16_64)))
 (let (($x944 (= (_ bv0 2) ?x9001)))
 (let (($x1417 (not $x944)))
 (let ((?x1645 ((_ extract 7 0) args_16_64)))
 (let (($x8973 (bvule (_ bv48 8) ?x1645)))
 (let (($x8267 (not $x8973)))
 (let ((?x8775 ((_ extract 5 0) args_16_64)))
 (let (($x8755 (bvule ?x8775 (_ bv57 6))))
 (let (($x1705 (not $x8755)))
 (let (($x652 (or $x1705 $x8267 $x1417)))
 (let (($x8386 (not $x652)))
 (let (($x7314 (or $x8386 $x7436 $x7327 $x1590)))
 (let (($x7386 (not $x7314)))
 (let (($x8089 (or $x652 $x1590)))
 (let (($x2153 (= (_ bv8 64) num_bytes_165_64)))
 (let (($x6779 (not $x2153)))
 (let (($x1096 (or $x6779 $x7327 $x8089)))
 (let (($x7431 (not $x1096)))
 (or $x7431 $x7386 $x7368 $x7362 $x962 $x6744 $x959 $x7069 $x733))))))))))))))))))))))))))))))))))))))))))))))))))))))))))))))))))))))))))))))))))))))))))))))))))))))))))))))))))))))))))))))))))))
(assert
 (= (_ bv1 32) strncmp_ret_247_32))
(assert
 (= (_ bv1 32) strncmp_ret_273_32))
(assert
 (let (($x96 (= (_ bv0 8) args_3_8)))
 (let ((?x157 (ite $x96 (_ bv576460752303357830 64) (_ bv576460752303357831 64))))
 (let ((?x164 (bvsub ?x157 (_ bv576460752303357830 64))))
 (= ?x164 strlen_332_64)))))
(assert
 (let (($x8282 (= (_ bv1 32) strncmp_ret_333_32)))
 (let (($x8732 (bvult strlen_332_64 (_ bv0 64))))
 (let (($x134 (= (_ bv45 8) args_3_8)))
 (let (($x8536 (or $x134 $x8732)))
 (let (($x8301 (bvuge strlen_332_64 (_ bv6 64))))
 (let (($x8395 (= (_ bv6 64) strlen_332_64)))
 (let (($x1595 (or $x8395 $x8301)))
 (let (($x8476 (and $x1595 $x8536)))
 (let (($x1147 (not $x8476)))
 (let (($x8075 (and $x1147 $x8282)))
 (let (($x1133 (= (_ bv0 32) strncmp_ret_333_32)))
 (let (($x8144 (and $x1595 $x8536 $x1133)))
 (or $x8144 $x8075))))))))))))))
(assert
 (and (distinct (_ bv0 32) strncmp_ret_333_32) true))
(maximize strncmp_ret_148_32)
(maximize args_4_8)
(minimize args_9_16)
(minimize strlen_93_64)
(maximize args_10_32)
(minimize strncmp_ret_136_32)
(maximize strncmp_ret_79_32)
(maximize strncmp_ret_124_32)
(minimize args_13_32)
(minimize strncmp_ret_148_32)
(maximize strncmp_ret_85_32)
(maximize strlen_99_64)
(minimize args_6_16)
(maximize strlen_105_64)
(maximize args_15_64)
(minimize strncmp_ret_130_32)
(maximize strlen_111_64)
(minimize args_11_32)
(maximize args_2_8)
(maximize args_11_32)
(maximize args_9_16)
(minimize strlen_87_64)
(minimize strlen_81_64)
(minimize strlen_129_64)
(maximize strlen_90_64)
(minimize strlen_332_64)
(maximize args_1_8)
(minimize args_10_32)
(minimize strlen_272_64)
(maximize args_6_16)
(maximize strlen_84_64)
(minimize num_bytes_164_64)
(minimize strncmp_ret_82_32)
(minimize strncmp_ret_303_32)
(maximize strlen_302_64)
(minimize strlen_157_64)
(maximize strlen_141_64)
(minimize strncmp_ret_273_32)
(minimize strncmp_ret_79_32)
(maximize strncmp_ret_130_32)
(minimize strlen_90_64)
(minimize strncmp_ret_106_32)
(minimize strlen_105_64)
(maximize strncmp_ret_82_32)
(maximize strncmp_ret_158_32)
(minimize strncmp_ret_124_32)
(minimize args_14_32)
(maximize args_8_16)
(maximize strlen_135_64)
(maximize strlen_129_64)
(minimize strlen_147_64)
(maximize strlen_87_64)
(maximize num_bytes_165_64)
(minimize strlen_135_64)
(maximize strncmp_ret_303_32)
(maximize strlen_157_64)
(maximize args_16_64)
(minimize strlen_302_64)
(maximize strlen_123_64)
(maximize strncmp_ret_136_32)
(minimize strncmp_ret_158_32)
(minimize args_16_64)
(minimize args_8_16)
(minimize strncmp_ret_112_32)
(minimize strlen_117_64)
(minimize strlen_123_64)
(maximize args_0_8)
(minimize strncmp_ret_333_32)
(minimize args_4_8)
(maximize args_12_32)
(maximize strlen_117_64)
(minimize strlen_84_64)
(minimize args_7_16)
(maximize strncmp_ret_333_32)
(maximize strlen_332_64)
(minimize args_12_32)
(minimize args_5_16)
(maximize args_5_16)
(minimize strlen_141_64)
(maximize strncmp_ret_273_32)
(minimize args_0_8)
(minimize args_15_64)
(maximize strlen_81_64)
(maximize strncmp_ret_100_32)
(minimize strncmp_ret_94_32)
(minimize strncmp_ret_118_32)
(maximize strncmp_ret_88_32)
(maximize strlen_246_64)
(maximize strncmp_ret_106_32)
(maximize args_7_16)
(maximize num_bytes_163_64)
(minimize strlen_78_64)
(check-sat)
(get-objectives)
